Set parameter TokenServer to value "opt-license.discovery.wisc.edu"
Set parameter LazyConstraints to value 1
Set parameter TimeLimit to value 1800
Gurobi Optimizer version 9.5.1 build v9.5.1rc2 (linux64)
Thread count: 40 physical cores, 80 logical processors, using up to 32 threads
Optimize a model with 5041 rows, 4900 columns and 19530 nonzeros
Model fingerprint: 0x0fb71f19
Variable types: 0 continuous, 4900 integer (4900 binary)
Coefficient statistics:
  Matrix range     [1e+00, 2e+03]
  Objective range  [1e+00, 1e+01]
  Bounds range     [1e+00, 1e+00]
  RHS range        [1e+00, 6e+00]
Presolve removed 70 rows and 0 columns
Presolve time: 0.08s
Presolved: 4971 rows, 4900 columns, 19530 nonzeros
Variable types: 0 continuous, 4900 integer (4900 binary)

Root relaxation: objective 9.200306e+01, 1405 iterations, 0.09 seconds (0.06 work units)

    Nodes    |    Current Node    |     Objective Bounds      |     Work
 Expl Unexpl |  Obj  Depth IntInf | Incumbent    BestBd   Gap | It/Node Time

     0     0   92.00306    0  165          -   92.00306      -     -    1s
     0     0   92.15577    0  215          -   92.15577      -     -    2s
     0     0   92.16570    0  217          -   92.16570      -     -    2s
     0     0   92.30619    0  218          -   92.30619      -     -    2s
     0     0   92.30766    0  219          -   92.30766      -     -    2s
     0     0   92.32340    0  271          -   92.32340      -     -    2s
     0     0   92.32366    0  271          -   92.32366      -     -    2s
     0     0   92.32366    0  271          -   92.32366      -     -    3s
H    0     0                      93.7094461   92.32366  1.48%     -    3s
H    0     0                      93.3597277   92.35995  1.07%     -    3s
     0     0   92.35995    0  141   93.35973   92.35995  1.07%     -    4s
     0     0   92.35995    0  178   93.35973   92.35995  1.07%     -    4s
     0     0   92.35995    0  235   93.35973   92.35995  1.07%     -    4s
     0     0   92.35995    0  234   93.35973   92.35995  1.07%     -    4s
     0     0   92.35995    0  235   93.35973   92.35995  1.07%     -    4s
     0     0   92.35995    0  235   93.35973   92.35995  1.07%     -    4s
H    0     0                      93.2280150   92.35995  0.93%     -    4s
     0     0   92.35995    0  124   93.22801   92.35995  0.93%     -    4s
     0     0   92.35995    0  177   93.22801   92.35995  0.93%     -    4s
     0     0   92.35995    0  214   93.22801   92.35995  0.93%     -    4s
     0     0   92.35995    0  214   93.22801   92.35995  0.93%     -    4s
     0     0   92.35995    0  212   93.22801   92.35995  0.93%     -    4s
     0     2   92.35995    0  212   93.22801   92.35995  0.93%     -    5s
H   23    18                      92.7739412   92.50110  0.29%  41.7    5s
H   35    12                      92.5378732   92.53787  0.00%  31.9    5s

Cutting planes:
  Gomory: 1
  Lift-and-project: 2
  MIR: 5
  GUB cover: 6
  Zero half: 1
  Lazy constraints: 1

Explored 39 nodes (5141 simplex iterations) in 5.90 seconds (0.85 work units)
Thread count was 32 (of 80 available processors)

Solution count 5: 92.5379 92.7739 93.228 ... 93.7094

Optimal solution found (tolerance 1.00e-04)
Best objective 9.253787324945e+01, best bound 9.253787324945e+01, gap 0.0000%

User-callback calls 1102, time in user-callback 3.39 sec
cuts :  425
